
length = 20;
width = 10;

ntypes = 3;
number = [3,2,2];
config = [{1},{2},{3}];
nshapes = 3;
shape = [{1,2},{3,4,5},{6,7,8}];
nroff = 8;
rectoff = [| 0,1,2,1 | 2,0,3,3
| 0,1,1,2 | 1,0,4,4 | 5,0,2,2
| 2,0,1,1 | 1,1,3,3 | 0,4,5,1
|];

mist =   array1d(LENGTH,[0 | l in LENGTH ]);
arrow  = array1d(WIDTH,[0 | w in WIDTH]);
price = [ 0 | p in 1..ntypes];
budget = 40;
stage = B;

% A possible answer is
% x = [0, 15, 0, 9, 9, 15, 4];
% y = [1, 0, 4, 6, 2, 4, 4];
% k = [0, 0, 0, 0, 0, 0, 0];
% tarrows = 0;